(set-info :smt-lib-version 2.6)
(set-logic UF)
(set-info :source |
Generated by: Andrew Reynolds
Generated on: 2017-04-28
Generator: Sledgehammer, converted to v2.6 by CVC4
Application: Verfication goals in Isabelle
Target solver: CVC4, Z3
Publications: "A Decision Procedure for (Co)Datatypes" by Andrew Reynolds and Jasmin Blanchette, CADE 2015.
|)
(set-info :license "https://creativecommons.org/licenses/by/4.0/")
(set-info :category "industrial")
(set-info :status unknown)


(declare-sort A$ 0)
(declare-sort Nat$ 0)
(declare-sort Nat_nat_fun$ 0)
(declare-sort Bool_nat_fun$ 0)
(declare-sort Nat_bool_fun$ 0)
(declare-sort A_list_nat_fun$ 0)
(declare-sort A_list_a_list_fun$ 0)
(declare-sort Nat_nat_nat_fun_fun$ 0)
(declare-sort Natural_natural_fun$ 0)
(declare-sort Nat_nat_bool_fun_fun$ 0)
(declare-sort Natural_natural_natural_fun_fun$ 0)
(declare-sort A_list$ 0)
(declare-fun nil$ () A_list$)
(declare-fun hd$ (A_list$) A$)
(declare-fun tl$ (A_list$) A_list$)
(declare-fun cons$ (A$ A_list$) A_list$)
(declare-sort A_stream$ 0)
(declare-fun shd$ (A_stream$) A$)
(declare-fun stl$ (A_stream$) A_stream$)
(declare-fun sCons$ (A$ A_stream$) A_stream$)
(declare-sort Natural$ 0)
(declare-sort Nibble$ 0)
(declare-sort Char$ 0)
(declare-sort Char_list$ 0)
(declare-sort Literal$ 0)
(declare-fun nat_of_natural$ (Natural$) Nat$)
(declare-fun natural_of_nat$ (Nat$) Natural$)
(declare-fun nibble0$ () Nibble$)
(declare-fun nibble1$ () Nibble$)
(declare-fun nibble2$ () Nibble$)
(declare-fun nibble3$ () Nibble$)
(declare-fun nibble4$ () Nibble$)
(declare-fun nibble5$ () Nibble$)
(declare-fun nibble6$ () Nibble$)
(declare-fun nibble7$ () Nibble$)
(declare-fun nibble8$ () Nibble$)
(declare-fun nibble9$ () Nibble$)
(declare-fun nibbleA$ () Nibble$)
(declare-fun nibbleB$ () Nibble$)
(declare-fun nibbleC$ () Nibble$)
(declare-fun nibbleD$ () Nibble$)
(declare-fun nibbleE$ () Nibble$)
(declare-fun nibbleF$ () Nibble$)
(declare-fun select$ (Char$) Nibble$)
(declare-fun selecta$ (Char$) Nibble$)
(declare-fun char$ (Nibble$ Nibble$) Char$)
(declare-fun nil$a () Char_list$)
(declare-fun hd$a (Char_list$) Char$)
(declare-fun tl$a (Char_list$) Char_list$)
(declare-fun cons$a (Char$ Char_list$) Char_list$)
(declare-fun explode$ (Literal$) Char_list$)
(declare-fun str$ (Char_list$) Literal$)
(declare-fun ma$ () Nat$)
(declare-fun na$ () Nat$)
(declare-fun sa$ () A_stream$)
(declare-fun min$ () Nat_nat_nat_fun_fun$)
(declare-fun one$ () Nat$)
(declare-fun suc$ (Nat$) Nat$)
(declare-fun last$ (A_list$) A$)
(declare-fun less$ (Nat$) Nat_bool_fun$)
(declare-fun min$a () Natural_natural_natural_fun_fun$)
(declare-fun one$a () Natural$)
(declare-fun plus$ () Nat_nat_nat_fun_fun$)
(declare-fun size$ () A_list_nat_fun$)
(declare-fun suc$a (Natural$) Natural$)
(declare-fun take$ (Nat$ A_list$) A_list$)
(declare-fun zero$ () Nat$)
(declare-fun less$a (Natural$ Natural$) Bool)
(declare-fun minus$ (Nat$) Nat_nat_fun$)
(declare-fun plus$a () Natural_natural_natural_fun_fun$)
(declare-fun size$a (Nibble$) Nat$)
(declare-fun size$b () Bool_nat_fun$)
(declare-fun size$c (Natural$) Nat$)
(declare-fun size$d (Char$) Nat$)
(declare-fun size$e (Literal$) Nat$)
(declare-fun stake$ (Nat$ A_stream$) A_list$)
(declare-fun zero$a () Natural$)
(declare-fun minus$a (Natural$) Natural_natural_fun$)
(declare-fun splice$ (A_list$) A_list_a_list_fun$)
(declare-fun fun_app$ (Nat_nat_fun$ Nat$) Nat$)
(declare-fun fun_app$a (Nat_nat_nat_fun_fun$ Nat$) Nat_nat_fun$)
(declare-fun fun_app$b (Natural_natural_fun$ Natural$) Natural$)
(declare-fun fun_app$c (Natural_natural_natural_fun_fun$ Natural$) Natural_natural_fun$)
(declare-fun fun_app$d (A_list_nat_fun$ A_list$) Nat$)
(declare-fun fun_app$e (Nat_bool_fun$ Nat$) Bool)
(declare-fun fun_app$f (Nat_nat_bool_fun_fun$ Nat$) Nat_bool_fun$)
(declare-fun fun_app$g (A_list_a_list_fun$ A_list$) A_list$)
(declare-fun fun_app$h (Bool_nat_fun$ Bool) Nat$)
(declare-fun rec_bool$ (Nat$ Nat$) Bool_nat_fun$)
(declare-fun triangle$ (Nat$) Nat$)
(declare-fun replicate$ (Nat$ A$) A_list$)
(declare-fun semigroup$ (Natural_natural_natural_fun_fun$) Bool)
(declare-fun size_bool$ () Bool_nat_fun$)
(declare-fun size_char$ (Char$) Nat$)
(declare-fun count_list$ (A_list$ A$) Nat$)
(declare-fun gen_length$ (Nat$) A_list_nat_fun$)
(declare-fun semigroup$a (Nat_nat_nat_fun_fun$) Bool)
(declare-fun size_nibble$ (Nibble$) Nat$)
(declare-fun size_natural$ (Natural$) Nat$)
(declare-fun nibble_of_nat$ (Nat$) Nibble$)
(assert (not (= (take$ na$ (stake$ (suc$ ma$) sa$)) (stake$ (fun_app$ (fun_app$a min$ na$) (suc$ ma$)) sa$))))
(assert (forall ((?v0 Nat$) (?v1 A_stream$)) (= (take$ ?v0 (stake$ ma$ ?v1)) (stake$ (fun_app$ (fun_app$a min$ ?v0) ma$) ?v1)) ))
(assert (forall ((?v0 Nat$) (?v1 Nat$) (?v2 A_list$)) (= (take$ ?v0 (take$ ?v1 ?v2)) (take$ (fun_app$ (fun_app$a min$ ?v0) ?v1) ?v2)) ))
(assert (forall ((?v0 Nat$) (?v1 Nat$)) (= (fun_app$ (fun_app$a min$ (suc$ ?v0)) (suc$ ?v1)) (suc$ (fun_app$ (fun_app$a min$ ?v0) ?v1))) ))
(assert (forall ((?v0 Natural$) (?v1 Natural$)) (= (fun_app$b (fun_app$c min$a (fun_app$b (fun_app$c min$a ?v0) ?v1)) ?v1) (fun_app$b (fun_app$c min$a ?v0) ?v1)) ))
(assert (forall ((?v0 Nat$) (?v1 Nat$)) (= (fun_app$ (fun_app$a min$ (fun_app$ (fun_app$a min$ ?v0) ?v1)) ?v1) (fun_app$ (fun_app$a min$ ?v0) ?v1)) ))
(assert (forall ((?v0 Natural$) (?v1 Natural$)) (= (fun_app$b (fun_app$c min$a ?v0) (fun_app$b (fun_app$c min$a ?v0) ?v1)) (fun_app$b (fun_app$c min$a ?v0) ?v1)) ))
(assert (forall ((?v0 Nat$) (?v1 Nat$)) (= (fun_app$ (fun_app$a min$ ?v0) (fun_app$ (fun_app$a min$ ?v0) ?v1)) (fun_app$ (fun_app$a min$ ?v0) ?v1)) ))
(assert (forall ((?v0 Natural$)) (= (fun_app$b (fun_app$c min$a ?v0) ?v0) ?v0) ))
(assert (forall ((?v0 Nat$)) (= (fun_app$ (fun_app$a min$ ?v0) ?v0) ?v0) ))
(assert (forall ((?v0 Nat$) (?v1 Nat$)) (= (= (suc$ ?v0) (suc$ ?v1)) (= ?v0 ?v1)) ))
(assert (forall ((?v0 Nat$) (?v1 Nat$)) (= (= (suc$ ?v0) (suc$ ?v1)) (= ?v0 ?v1)) ))
(assert (forall ((?v0 A_list$) (?v1 A_list$)) (=> (forall ((?v2 Nat$)) (= (take$ ?v2 ?v0) (take$ ?v2 ?v1)) ) (= ?v0 ?v1)) ))
(assert (forall ((?v0 Natural$) (?v1 Natural$) (?v2 Natural$)) (= (fun_app$b (fun_app$c min$a (fun_app$b (fun_app$c min$a ?v0) ?v1)) ?v2) (fun_app$b (fun_app$c min$a ?v0) (fun_app$b (fun_app$c min$a ?v1) ?v2))) ))
(assert (forall ((?v0 Nat$) (?v1 Nat$) (?v2 Nat$)) (= (fun_app$ (fun_app$a min$ (fun_app$ (fun_app$a min$ ?v0) ?v1)) ?v2) (fun_app$ (fun_app$a min$ ?v0) (fun_app$ (fun_app$a min$ ?v1) ?v2))) ))
(assert (forall ((?v0 Natural$) (?v1 Natural$) (?v2 Natural$)) (= (fun_app$b (fun_app$c min$a ?v0) (fun_app$b (fun_app$c min$a ?v1) ?v2)) (fun_app$b (fun_app$c min$a ?v1) (fun_app$b (fun_app$c min$a ?v0) ?v2))) ))
(assert (forall ((?v0 Nat$) (?v1 Nat$) (?v2 Nat$)) (= (fun_app$ (fun_app$a min$ ?v0) (fun_app$ (fun_app$a min$ ?v1) ?v2)) (fun_app$ (fun_app$a min$ ?v1) (fun_app$ (fun_app$a min$ ?v0) ?v2))) ))
(assert (forall ((?v0 Natural$) (?v1 Natural$)) (= (fun_app$b (fun_app$c min$a ?v0) ?v1) (fun_app$b (fun_app$c min$a ?v1) ?v0)) ))
(assert (forall ((?v0 Nat$) (?v1 Nat$)) (= (fun_app$ (fun_app$a min$ ?v0) ?v1) (fun_app$ (fun_app$a min$ ?v1) ?v0)) ))
(assert (forall ((?v0 Nat$)) (not (= ?v0 (suc$ ?v0))) ))
(assert (forall ((?v0 Nat$) (?v1 Nat$)) (=> (= (suc$ ?v0) (suc$ ?v1)) (= ?v0 ?v1)) ))
(assert (forall ((?v0 Nat$) (?v1 Nat$) (?v2 A$)) (= (take$ ?v0 (replicate$ ?v1 ?v2)) (replicate$ (fun_app$ (fun_app$a min$ ?v0) ?v1) ?v2)) ))
(assert (forall ((?v0 Nat$) (?v1 A_list$)) (= (fun_app$d size$ (take$ ?v0 ?v1)) (fun_app$ (fun_app$a min$ (fun_app$d size$ ?v1)) ?v0)) ))
(assert (forall ((?v0 Nat$) (?v1 A$) (?v2 A_list$)) (! (= (take$ (suc$ ?v0) (cons$ ?v1 ?v2)) (cons$ ?v1 (take$ ?v0 ?v2))) :pattern ((take$ (suc$ ?v0) (cons$ ?v1 ?v2))))))
(assert (forall ((?v0 Nat$) (?v1 A_list$)) (= (take$ ?v0 (tl$ ?v1)) (tl$ (take$ (suc$ ?v0) ?v1))) ))
(assert (forall ((?v0 Nat$) (?v1 A_stream$)) (= (fun_app$d size$ (stake$ ?v0 ?v1)) ?v0) ))
(assert (semigroup$ min$a))
(assert (semigroup$a min$))
(assert (forall ((?v0 Nat$)) (= (fun_app$ (fun_app$a min$ zero$) ?v0) zero$) ))
(assert (forall ((?v0 Nat$)) (= (fun_app$ (fun_app$a min$ ?v0) zero$) zero$) ))
(assert (forall ((?v0 A$) (?v1 A_list$) (?v2 A$) (?v3 A_list$)) (= (= (cons$ ?v0 ?v1) (cons$ ?v2 ?v3)) (and (= ?v0 ?v2) (= ?v1 ?v3))) ))
(assert (forall ((?v0 Nat$) (?v1 A$) (?v2 Nat$) (?v3 A$)) (= (= (replicate$ ?v0 ?v1) (replicate$ ?v2 ?v3)) (and (= ?v0 ?v2) (=> (not (= ?v0 zero$)) (= ?v1 ?v3)))) ))
(assert (forall ((?v0 Nat$) (?v1 A$)) (= (fun_app$d size$ (replicate$ ?v0 ?v1)) ?v0) ))
(assert (forall ((?v0 A$) (?v1 A_list$)) (! (= (tl$ (cons$ ?v0 ?v1)) ?v1) :pattern ((cons$ ?v0 ?v1)))))
(assert (forall ((?v0 Nat$)) (=> (and (=> (= ?v0 zero$) false) (=> (not (= ?v0 zero$)) false)) false) ))
(assert (forall ((?v0 A_list$) (?v1 A_list$)) (=> (not (= (fun_app$d size$ ?v0) (fun_app$d size$ ?v1))) (= (= ?v0 ?v1) false)) ))
(assert (forall ((?v0 A$) (?v1 A_list$)) (not (= (cons$ ?v0 ?v1) ?v1)) ))
(assert (forall ((?v0 Nat$)) (exists ((?v1 A_list$)) (= (fun_app$d size$ ?v1) ?v0) ) ))
(assert (forall ((?v0 A_list$) (?v1 Nat$)) (= (= (fun_app$d size$ ?v0) (suc$ ?v1)) (exists ((?v2 A$) (?v3 A_list$)) (and (= ?v0 (cons$ ?v2 ?v3)) (= (fun_app$d size$ ?v3) ?v1)) )) ))
(assert (forall ((?v0 Nat$) (?v1 A_list$)) (= (= (suc$ ?v0) (fun_app$d size$ ?v1)) (exists ((?v2 A$) (?v3 A_list$)) (and (= ?v1 (cons$ ?v2 ?v3)) (= (fun_app$d size$ ?v3) ?v0)) )) ))
(assert (forall ((?v0 Nat$) (?v1 A$)) (! (= (replicate$ (suc$ ?v0) ?v1) (cons$ ?v1 (replicate$ ?v0 ?v1))) :pattern ((replicate$ (suc$ ?v0) ?v1)))))
(assert (forall ((?v0 Nat$)) (=> (and (=> (= ?v0 zero$) false) (forall ((?v1 Nat$)) (=> (= ?v0 (suc$ ?v1)) false) )) false) ))
(assert (forall ((?v0 Nat_nat_bool_fun_fun$) (?v1 Nat$) (?v2 Nat$)) (=> (and (forall ((?v3 Nat$)) (fun_app$e (fun_app$f ?v0 ?v3) zero$) ) (and (forall ((?v3 Nat$)) (fun_app$e (fun_app$f ?v0 zero$) (suc$ ?v3)) ) (forall ((?v3 Nat$) (?v4 Nat$)) (=> (fun_app$e (fun_app$f ?v0 ?v3) ?v4) (fun_app$e (fun_app$f ?v0 (suc$ ?v3)) (suc$ ?v4))) ))) (fun_app$e (fun_app$f ?v0 ?v1) ?v2)) ))
(assert (forall ((?v0 Nat$)) (=> (= (suc$ ?v0) zero$) false) ))
(assert (forall ((?v0 Nat$) (?v1 Nat$)) (=> (= ?v0 (suc$ ?v1)) (not (= ?v0 zero$))) ))
(assert (forall ((?v0 Nat$)) (=> (= zero$ (suc$ ?v0)) false) ))
(assert (forall ((?v0 Nat$)) (=> (not (= ?v0 zero$)) (exists ((?v1 Nat$)) (= ?v0 (suc$ ?v1)) )) ))
(assert (forall ((?v0 Nat_bool_fun$) (?v1 Nat$)) (=> (and (fun_app$e ?v0 ?v1) (forall ((?v2 Nat$)) (=> (fun_app$e ?v0 (suc$ ?v2)) (fun_app$e ?v0 ?v2)) )) (fun_app$e ?v0 zero$)) ))
(assert (forall ((?v0 Nat_bool_fun$) (?v1 Nat$)) (=> (and (fun_app$e ?v0 zero$) (forall ((?v2 Nat$)) (=> (fun_app$e ?v0 ?v2) (fun_app$e ?v0 (suc$ ?v2))) )) (fun_app$e ?v0 ?v1)) ))
(assert (forall ((?v0 Nat$)) (not (= zero$ (suc$ ?v0))) ))
(assert (forall ((?v0 Nat$)) (not (= zero$ (suc$ ?v0))) ))
(assert (forall ((?v0 Nat$)) (not (= (suc$ ?v0) zero$)) ))
(assert (forall ((?v0 Nat$)) (not (= zero$ (suc$ ?v0))) ))
(assert (forall ((?v0 A$) (?v1 A_list$)) (! (= (fun_app$d size$ (cons$ ?v0 ?v1)) (suc$ (fun_app$d size$ ?v1))) :pattern ((cons$ ?v0 ?v1)))))
(assert (forall ((?v0 Nat$)) (=> (and (=> (= ?v0 zero$) false) (forall ((?v1 Nat$)) (=> (= ?v0 (suc$ ?v1)) false) )) false) ))
(assert (= size$ (gen_length$ zero$)))
(assert (forall ((?v0 Nat$) (?v1 A$) (?v2 A_list$)) (! (= (fun_app$d (gen_length$ ?v0) (cons$ ?v1 ?v2)) (fun_app$d (gen_length$ (suc$ ?v0)) ?v2)) :pattern ((fun_app$d (gen_length$ ?v0) (cons$ ?v1 ?v2))))))
(assert (forall ((?v0 A$) (?v1 A_list$)) (! (= (fun_app$d size$ (cons$ ?v0 ?v1)) (fun_app$ (fun_app$a plus$ (fun_app$d size$ ?v1)) (suc$ zero$))) :pattern ((cons$ ?v0 ?v1)))))
(assert (forall ((?v0 Natural$) (?v1 Natural$) (?v2 Natural$)) (= (= (fun_app$b (fun_app$c plus$a ?v0) ?v1) (fun_app$b (fun_app$c plus$a ?v2) ?v1)) (= ?v0 ?v2)) ))
(assert (forall ((?v0 Nat$) (?v1 Nat$) (?v2 Nat$)) (= (= (fun_app$ (fun_app$a plus$ ?v0) ?v1) (fun_app$ (fun_app$a plus$ ?v2) ?v1)) (= ?v0 ?v2)) ))
(assert (forall ((?v0 Natural$) (?v1 Natural$) (?v2 Natural$)) (= (= (fun_app$b (fun_app$c plus$a ?v0) ?v1) (fun_app$b (fun_app$c plus$a ?v0) ?v2)) (= ?v1 ?v2)) ))
(assert (forall ((?v0 Nat$) (?v1 Nat$) (?v2 Nat$)) (= (= (fun_app$ (fun_app$a plus$ ?v0) ?v1) (fun_app$ (fun_app$a plus$ ?v0) ?v2)) (= ?v1 ?v2)) ))
(assert (forall ((?v0 Nat$)) (= (fun_app$ (fun_app$a plus$ ?v0) zero$) ?v0) ))
(assert (forall ((?v0 Natural$)) (= (fun_app$b (fun_app$c plus$a ?v0) zero$a) ?v0) ))
(assert (forall ((?v0 Nat$)) (= (fun_app$ (fun_app$a plus$ zero$) ?v0) ?v0) ))
(assert (forall ((?v0 Natural$)) (= (fun_app$b (fun_app$c plus$a zero$a) ?v0) ?v0) ))
(assert (forall ((?v0 Nat$)) (! (= (fun_app$ (fun_app$a plus$ ?v0) zero$) ?v0) :pattern ((fun_app$a plus$ ?v0)))))
(assert (forall ((?v0 Nat$) (?v1 Nat$)) (= (= (fun_app$ (fun_app$a plus$ ?v0) ?v1) zero$) (and (= ?v0 zero$) (= ?v1 zero$))) ))
(assert (forall ((?v0 Nat$) (?v1 Nat$)) (! (= (fun_app$ (fun_app$a plus$ ?v0) (suc$ ?v1)) (suc$ (fun_app$ (fun_app$a plus$ ?v0) ?v1))) :pattern ((fun_app$ (fun_app$a plus$ ?v0) (suc$ ?v1))))))
(assert (forall ((?v0 Natural$) (?v1 Natural$) (?v2 Natural$)) (= (fun_app$b (fun_app$c plus$a (fun_app$b (fun_app$c plus$a ?v0) ?v1)) ?v2) (fun_app$b (fun_app$c plus$a ?v0) (fun_app$b (fun_app$c plus$a ?v1) ?v2))) ))
(assert (forall ((?v0 Nat$) (?v1 Nat$) (?v2 Nat$)) (= (fun_app$ (fun_app$a plus$ (fun_app$ (fun_app$a plus$ ?v0) ?v1)) ?v2) (fun_app$ (fun_app$a plus$ ?v0) (fun_app$ (fun_app$a plus$ ?v1) ?v2))) ))
(assert (forall ((?v0 Natural$) (?v1 Natural$) (?v2 Natural$)) (= (fun_app$b (fun_app$c plus$a (fun_app$b (fun_app$c plus$a ?v0) ?v1)) ?v2) (fun_app$b (fun_app$c plus$a ?v0) (fun_app$b (fun_app$c plus$a ?v1) ?v2))) ))
(assert (forall ((?v0 Nat$) (?v1 Nat$) (?v2 Nat$)) (= (fun_app$ (fun_app$a plus$ (fun_app$ (fun_app$a plus$ ?v0) ?v1)) ?v2) (fun_app$ (fun_app$a plus$ ?v0) (fun_app$ (fun_app$a plus$ ?v1) ?v2))) ))
(assert (forall ((?v0 Natural$) (?v1 Natural$) (?v2 Natural$)) (= (fun_app$b (fun_app$c plus$a ?v0) (fun_app$b (fun_app$c plus$a ?v1) ?v2)) (fun_app$b (fun_app$c plus$a ?v1) (fun_app$b (fun_app$c plus$a ?v0) ?v2))) ))
(assert (forall ((?v0 Nat$) (?v1 Nat$) (?v2 Nat$)) (= (fun_app$ (fun_app$a plus$ ?v0) (fun_app$ (fun_app$a plus$ ?v1) ?v2)) (fun_app$ (fun_app$a plus$ ?v1) (fun_app$ (fun_app$a plus$ ?v0) ?v2))) ))
(assert (forall ((?v0 Natural$) (?v1 Natural$)) (= (fun_app$b (fun_app$c plus$a ?v0) ?v1) (fun_app$b (fun_app$c plus$a ?v1) ?v0)) ))
(assert (forall ((?v0 Nat$) (?v1 Nat$)) (= (fun_app$ (fun_app$a plus$ ?v0) ?v1) (fun_app$ (fun_app$a plus$ ?v1) ?v0)) ))
(assert (forall ((?v0 Natural$) (?v1 Natural$) (?v2 Natural$)) (=> (= (fun_app$b (fun_app$c plus$a ?v0) ?v1) (fun_app$b (fun_app$c plus$a ?v2) ?v1)) (= ?v0 ?v2)) ))
(assert (forall ((?v0 Nat$) (?v1 Nat$) (?v2 Nat$)) (=> (= (fun_app$ (fun_app$a plus$ ?v0) ?v1) (fun_app$ (fun_app$a plus$ ?v2) ?v1)) (= ?v0 ?v2)) ))
(assert (forall ((?v0 Natural$) (?v1 Natural$) (?v2 Natural$)) (=> (= (fun_app$b (fun_app$c plus$a ?v0) ?v1) (fun_app$b (fun_app$c plus$a ?v0) ?v2)) (= ?v1 ?v2)) ))
(assert (forall ((?v0 Nat$) (?v1 Nat$) (?v2 Nat$)) (=> (= (fun_app$ (fun_app$a plus$ ?v0) ?v1) (fun_app$ (fun_app$a plus$ ?v0) ?v2)) (= ?v1 ?v2)) ))
(assert (forall ((?v0 Natural$) (?v1 Natural$) (?v2 Natural$) (?v3 Natural$)) (=> (and (= ?v0 ?v1) (= ?v2 ?v3)) (= (fun_app$b (fun_app$c plus$a ?v0) ?v2) (fun_app$b (fun_app$c plus$a ?v1) ?v3))) ))
(assert (forall ((?v0 Nat$) (?v1 Nat$) (?v2 Nat$) (?v3 Nat$)) (=> (and (= ?v0 ?v1) (= ?v2 ?v3)) (= (fun_app$ (fun_app$a plus$ ?v0) ?v2) (fun_app$ (fun_app$a plus$ ?v1) ?v3))) ))
(assert (forall ((?v0 Nat$) (?v1 Nat$) (?v2 Nat$)) (= (= (fun_app$ (fun_app$a plus$ ?v0) ?v1) (fun_app$ (fun_app$a plus$ ?v0) ?v2)) (= ?v1 ?v2)) ))
(assert (forall ((?v0 Nat$) (?v1 Nat$) (?v2 Nat$)) (= (= (fun_app$ (fun_app$a plus$ ?v0) ?v1) (fun_app$ (fun_app$a plus$ ?v2) ?v1)) (= ?v0 ?v2)) ))
(assert (forall ((?v0 Nat$)) (= (fun_app$ (fun_app$a plus$ ?v0) zero$) ?v0) ))
(assert (forall ((?v0 Natural$)) (= (fun_app$b (fun_app$c plus$a ?v0) zero$a) ?v0) ))
(assert (forall ((?v0 Nat$)) (= (fun_app$ (fun_app$a plus$ zero$) ?v0) ?v0) ))
(assert (forall ((?v0 Natural$)) (= (fun_app$b (fun_app$c plus$a zero$a) ?v0) ?v0) ))
(assert (forall ((?v0 Natural$) (?v1 Natural$) (?v2 Natural$)) (= (fun_app$b (fun_app$c plus$a ?v0) (fun_app$b (fun_app$c min$a ?v1) ?v2)) (fun_app$b (fun_app$c min$a (fun_app$b (fun_app$c plus$a ?v0) ?v1)) (fun_app$b (fun_app$c plus$a ?v0) ?v2))) ))
(assert (forall ((?v0 Nat$) (?v1 Nat$) (?v2 Nat$)) (= (fun_app$ (fun_app$a plus$ ?v0) (fun_app$ (fun_app$a min$ ?v1) ?v2)) (fun_app$ (fun_app$a min$ (fun_app$ (fun_app$a plus$ ?v0) ?v1)) (fun_app$ (fun_app$a plus$ ?v0) ?v2))) ))
(assert (forall ((?v0 Natural$) (?v1 Natural$) (?v2 Natural$)) (= (fun_app$b (fun_app$c plus$a (fun_app$b (fun_app$c min$a ?v0) ?v1)) ?v2) (fun_app$b (fun_app$c min$a (fun_app$b (fun_app$c plus$a ?v0) ?v2)) (fun_app$b (fun_app$c plus$a ?v1) ?v2))) ))
(assert (forall ((?v0 Nat$) (?v1 Nat$) (?v2 Nat$)) (= (fun_app$ (fun_app$a plus$ (fun_app$ (fun_app$a min$ ?v0) ?v1)) ?v2) (fun_app$ (fun_app$a min$ (fun_app$ (fun_app$a plus$ ?v0) ?v2)) (fun_app$ (fun_app$a plus$ ?v1) ?v2))) ))
(assert (forall ((?v0 Nat$) (?v1 A_list$)) (! (= (fun_app$d (gen_length$ ?v0) ?v1) (fun_app$ (fun_app$a plus$ ?v0) (fun_app$d size$ ?v1))) :pattern ((fun_app$d (gen_length$ ?v0) ?v1)))))
(assert (semigroup$ plus$a))
(assert (semigroup$a plus$))
(assert (forall ((?v0 Nat$) (?v1 Nat$)) (=> (= (fun_app$ (fun_app$a plus$ ?v0) ?v1) ?v0) (= ?v1 zero$)) ))
(assert (forall ((?v0 Nat$)) (! (= (fun_app$ (fun_app$a plus$ zero$) ?v0) ?v0) :pattern ((fun_app$ (fun_app$a plus$ zero$) ?v0)))))
(assert (forall ((?v0 Nat$) (?v1 Nat$)) (! (= (fun_app$ (fun_app$a plus$ (suc$ ?v0)) ?v1) (suc$ (fun_app$ (fun_app$a plus$ ?v0) ?v1))) :pattern ((fun_app$ (fun_app$a plus$ (suc$ ?v0)) ?v1)))))
(assert (forall ((?v0 Nat$) (?v1 Nat$)) (! (= (fun_app$ (fun_app$a plus$ (suc$ ?v0)) ?v1) (fun_app$ (fun_app$a plus$ ?v0) (suc$ ?v1))) :pattern ((fun_app$ (fun_app$a plus$ (suc$ ?v0)) ?v1)))))
(assert (forall ((?v0 Nat$) (?v1 Nat$)) (= (= (fun_app$ (fun_app$a plus$ ?v0) ?v1) (suc$ zero$)) (or (and (= ?v0 (suc$ zero$)) (= ?v1 zero$)) (and (= ?v0 zero$) (= ?v1 (suc$ zero$))))) ))
(assert (forall ((?v0 Nat$) (?v1 Nat$)) (= (= (suc$ zero$) (fun_app$ (fun_app$a plus$ ?v0) ?v1)) (or (and (= ?v0 (suc$ zero$)) (= ?v1 zero$)) (and (= ?v0 zero$) (= ?v1 (suc$ zero$))))) ))
(assert (forall ((?v0 Nat$)) (= (= zero$ ?v0) (= ?v0 zero$)) ))
(assert (forall ((?v0 Natural$)) (= (= zero$a ?v0) (= ?v0 zero$a)) ))
(assert (forall ((?v0 Natural_natural_natural_fun_fun$)) (= (semigroup$ ?v0) (forall ((?v1 Natural$) (?v2 Natural$) (?v3 Natural$)) (= (fun_app$b (fun_app$c ?v0 (fun_app$b (fun_app$c ?v0 ?v1) ?v2)) ?v3) (fun_app$b (fun_app$c ?v0 ?v1) (fun_app$b (fun_app$c ?v0 ?v2) ?v3))) )) ))
(assert (forall ((?v0 Nat_nat_nat_fun_fun$)) (= (semigroup$a ?v0) (forall ((?v1 Nat$) (?v2 Nat$) (?v3 Nat$)) (= (fun_app$ (fun_app$a ?v0 (fun_app$ (fun_app$a ?v0 ?v1) ?v2)) ?v3) (fun_app$ (fun_app$a ?v0 ?v1) (fun_app$ (fun_app$a ?v0 ?v2) ?v3))) )) ))
(assert (forall ((?v0 Natural_natural_natural_fun_fun$)) (=> (forall ((?v1 Natural$) (?v2 Natural$) (?v3 Natural$)) (= (fun_app$b (fun_app$c ?v0 (fun_app$b (fun_app$c ?v0 ?v1) ?v2)) ?v3) (fun_app$b (fun_app$c ?v0 ?v1) (fun_app$b (fun_app$c ?v0 ?v2) ?v3))) ) (semigroup$ ?v0)) ))
(assert (forall ((?v0 Nat_nat_nat_fun_fun$)) (=> (forall ((?v1 Nat$) (?v2 Nat$) (?v3 Nat$)) (= (fun_app$ (fun_app$a ?v0 (fun_app$ (fun_app$a ?v0 ?v1) ?v2)) ?v3) (fun_app$ (fun_app$a ?v0 ?v1) (fun_app$ (fun_app$a ?v0 ?v2) ?v3))) ) (semigroup$a ?v0)) ))
(assert (forall ((?v0 Natural_natural_natural_fun_fun$) (?v1 Natural$) (?v2 Natural$) (?v3 Natural$)) (=> (semigroup$ ?v0) (= (fun_app$b (fun_app$c ?v0 (fun_app$b (fun_app$c ?v0 ?v1) ?v2)) ?v3) (fun_app$b (fun_app$c ?v0 ?v1) (fun_app$b (fun_app$c ?v0 ?v2) ?v3)))) ))
(assert (forall ((?v0 Nat_nat_nat_fun_fun$) (?v1 Nat$) (?v2 Nat$) (?v3 Nat$)) (=> (semigroup$a ?v0) (= (fun_app$ (fun_app$a ?v0 (fun_app$ (fun_app$a ?v0 ?v1) ?v2)) ?v3) (fun_app$ (fun_app$a ?v0 ?v1) (fun_app$ (fun_app$a ?v0 ?v2) ?v3)))) ))
(assert (forall ((?v0 Nat$)) (! (= (triangle$ (suc$ ?v0)) (fun_app$ (fun_app$a plus$ (triangle$ ?v0)) (suc$ ?v0))) :pattern ((suc$ ?v0)))))
(assert (forall ((?v0 Nat$) (?v1 Nat$)) (= (= ?v0 (fun_app$ (fun_app$a plus$ ?v0) ?v1)) (= ?v1 zero$)) ))
(assert (forall ((?v0 A_list$) (?v1 A_list$)) (= (fun_app$d size$ (fun_app$g (splice$ ?v0) ?v1)) (fun_app$ (fun_app$a plus$ (fun_app$d size$ ?v0)) (fun_app$d size$ ?v1))) ))
(assert (= (triangle$ zero$) zero$))
(assert (forall ((?v0 Nat$) (?v1 A$)) (=> (not (= ?v0 zero$)) (= (last$ (replicate$ ?v0 ?v1)) ?v1)) ))
(assert (forall ((?v0 A_list$) (?v1 A_list$)) (=> (not (= (fun_app$d size$ ?v0) (fun_app$d size$ ?v1))) (not (= ?v0 ?v1))) ))
(assert (forall ((?v0 Nibble$) (?v1 Nibble$)) (=> (not (= (size$a ?v0) (size$a ?v1))) (not (= ?v0 ?v1))) ))
(assert (forall ((?v0 Bool) (?v1 Bool)) (=> (not (= (fun_app$h size$b ?v0) (fun_app$h size$b ?v1))) (not (= ?v0 ?v1))) ))
(assert (forall ((?v0 Natural$) (?v1 Natural$)) (=> (not (= (size$c ?v0) (size$c ?v1))) (not (= ?v0 ?v1))) ))
(assert (forall ((?v0 Char$) (?v1 Char$)) (=> (not (= (size$d ?v0) (size$d ?v1))) (not (= ?v0 ?v1))) ))
(assert (forall ((?v0 Literal$) (?v1 Literal$)) (=> (not (= (size$e ?v0) (size$e ?v1))) (not (= ?v0 ?v1))) ))
(assert (forall ((?v0 A$) (?v1 A_list$) (?v2 A$) (?v3 A_list$)) (! (= (fun_app$g (splice$ (cons$ ?v0 ?v1)) (cons$ ?v2 ?v3)) (cons$ ?v0 (cons$ ?v2 (fun_app$g (splice$ ?v1) ?v3)))) :pattern ((fun_app$g (splice$ (cons$ ?v0 ?v1)) (cons$ ?v2 ?v3))))))
(assert (forall ((?v0 Nibble$)) (! (= (size$a ?v0) zero$) :pattern ((size$a ?v0)))))
(assert (= (fun_app$h size$b false) zero$))
(assert (= (fun_app$h size$b true) zero$))
(assert (= (size$c zero$a) zero$))
(assert (forall ((?v0 Char$)) (! (= (size$d ?v0) zero$) :pattern ((size$d ?v0)))))
(assert (= zero$ zero$))
(assert (forall ((?v0 Literal$)) (! (= (size$e ?v0) zero$) :pattern ((size$e ?v0)))))
(assert (forall ((?v0 Bool)) (! (= (fun_app$h size$b ?v0) zero$) :pattern ((fun_app$h size$b ?v0)))))
(assert (forall ((?v0 Char$)) (! (= (size_char$ ?v0) zero$) :pattern ((size_char$ ?v0)))))
(assert (= (size_natural$ zero$a) zero$))
(assert (forall ((?v0 Natural$)) (! (= (size$c (suc$a ?v0)) (fun_app$ (fun_app$a plus$ (size$c ?v0)) (suc$ zero$))) :pattern ((suc$a ?v0)))))
(assert (= (size$a nibbleA$) zero$))
(assert (forall ((?v0 Natural$) (?v1 Natural$)) (= (= (suc$a ?v0) (suc$a ?v1)) (= ?v0 ?v1)) ))
(assert (forall ((?v0 Natural$)) (! (= (size_natural$ (suc$a ?v0)) (fun_app$ (fun_app$a plus$ (size_natural$ ?v0)) (suc$ zero$))) :pattern ((suc$a ?v0)))))
(assert (forall ((?v0 Natural$)) (not (= (suc$a ?v0) zero$a)) ))
(assert (forall ((?v0 Natural$)) (not (= zero$a (suc$a ?v0))) ))
(assert (forall ((?v0 Natural$)) (=> (and (=> (= ?v0 zero$a) false) (forall ((?v1 Natural$)) (=> (= ?v0 (suc$a ?v1)) false) )) false) ))
(assert (= (fun_app$h size_bool$ false) zero$))
(assert (= (fun_app$h size_bool$ true) zero$))
(assert (= (size$a nibbleB$) zero$))
(assert (= size_bool$ (rec_bool$ zero$ zero$)))
(assert (= (size$a nibble8$) zero$))
(assert (= size$b (rec_bool$ zero$ zero$)))
(assert (= (size$a nibble0$) zero$))
(assert (= (size$a nibble1$) zero$))
(assert (= (size$a nibbleC$) zero$))
(assert (= (size$a nibbleD$) zero$))
(assert (= (size$a nibbleF$) zero$))
(assert (= (size$a nibble3$) zero$))
(assert (= (nibble_of_nat$ zero$) nibble0$))
(assert (= (size_nibble$ nibbleA$) zero$))
(assert (= (size$a nibble9$) zero$))
(assert (= (size_nibble$ nibbleB$) zero$))
(assert (forall ((?v0 Nibble$)) (! (= (size_nibble$ ?v0) zero$) :pattern ((size_nibble$ ?v0)))))
(assert (= (size_nibble$ nibble9$) zero$))
(assert (= (size_nibble$ nibble3$) zero$))
(assert (= (size_nibble$ nibbleF$) zero$))
(assert (= (size_nibble$ nibbleD$) zero$))
(assert (= (size_nibble$ nibbleC$) zero$))
(assert (= (size_nibble$ nibble1$) zero$))
(assert (= (size_nibble$ nibble0$) zero$))
(assert (= (size_nibble$ nibble8$) zero$))
(assert (= (size$a nibble2$) zero$))
(assert (forall ((?v0 Nibble$) (?v1 Nibble$)) (! (= (size$d (char$ ?v0 ?v1)) zero$) :pattern ((char$ ?v0 ?v1)))))
(assert (= (size$a nibble4$) zero$))
(assert (forall ((?v0 Nibble$) (?v1 Nibble$) (?v2 Nibble$) (?v3 Nibble$)) (= (= (char$ ?v0 ?v1) (char$ ?v2 ?v3)) (and (= ?v0 ?v2) (= ?v1 ?v3))) ))
(assert (forall ((?v0 Char$)) (=> (forall ((?v1 Nibble$) (?v2 Nibble$)) (=> (= ?v0 (char$ ?v1 ?v2)) false) ) false) ))
(assert (= (size_nibble$ nibble4$) zero$))
(assert (= (size_nibble$ nibble2$) zero$))
(assert (forall ((?v0 Nibble$) (?v1 Nibble$)) (! (= (size_char$ (char$ ?v0 ?v1)) zero$) :pattern ((char$ ?v0 ?v1)))))
(assert (= (nibble_of_nat$ one$) nibble1$))
(assert (= (size$a nibbleE$) zero$))
(assert (= one$ one$))
(assert (forall ((?v0 Nat$)) (= (= one$ ?v0) (= ?v0 one$)) ))
(assert (forall ((?v0 Natural$)) (= (= one$a ?v0) (= ?v0 one$a)) ))
(assert (= one$ (suc$ zero$)))
(assert (forall ((?v0 Nat$)) (! (= (suc$ ?v0) (fun_app$ (fun_app$a plus$ ?v0) one$)) :pattern ((suc$ ?v0)))))
(assert (forall ((?v0 Nat$)) (! (= (suc$ ?v0) (fun_app$ (fun_app$a plus$ one$) ?v0)) :pattern ((suc$ ?v0)))))
(assert (= (size_nibble$ nibbleE$) zero$))
(assert (not (= zero$ one$)))
(assert (not (= zero$a one$a)))
(assert (forall ((?v0 A$) (?v1 A_list$) (?v2 A$)) (! (= (count_list$ (cons$ ?v0 ?v1) ?v2) (ite (= ?v0 ?v2) (fun_app$ (fun_app$a plus$ (count_list$ ?v1 ?v2)) one$) (count_list$ ?v1 ?v2))) :pattern ((count_list$ (cons$ ?v0 ?v1) ?v2)))))
(assert (forall ((?v0 Nat$) (?v1 Nat$)) (= (fun_app$ (fun_app$a plus$ ?v0) ?v1) (ite (= ?v0 zero$) ?v1 (suc$ (fun_app$ (fun_app$a plus$ (fun_app$ (minus$ ?v0) one$)) ?v1)))) ))
(assert (forall ((?v0 Nat$)) (= (fun_app$ (minus$ zero$) ?v0) zero$) ))
(assert (forall ((?v0 Natural$)) (= (fun_app$b (minus$a zero$a) ?v0) zero$a) ))
(assert (forall ((?v0 Nat$)) (! (= (fun_app$ (minus$ ?v0) ?v0) zero$) :pattern ((minus$ ?v0)))))
(assert (forall ((?v0 Natural$)) (! (= (fun_app$b (minus$a ?v0) ?v0) zero$a) :pattern ((minus$a ?v0)))))
(assert (forall ((?v0 Nat$)) (= (fun_app$ (minus$ ?v0) zero$) ?v0) ))
(assert (forall ((?v0 Natural$)) (= (fun_app$b (minus$a ?v0) zero$a) ?v0) ))
(assert (forall ((?v0 Nat$) (?v1 Nat$)) (= (fun_app$ (minus$ (fun_app$ (fun_app$a plus$ ?v0) ?v1)) ?v0) ?v1) ))
(assert (forall ((?v0 Natural$) (?v1 Natural$)) (= (fun_app$b (minus$a (fun_app$b (fun_app$c plus$a ?v0) ?v1)) ?v0) ?v1) ))
(assert (forall ((?v0 Nat$) (?v1 Nat$)) (= (fun_app$ (minus$ (fun_app$ (fun_app$a plus$ ?v0) ?v1)) ?v1) ?v0) ))
(assert (forall ((?v0 Natural$) (?v1 Natural$)) (= (fun_app$b (minus$a (fun_app$b (fun_app$c plus$a ?v0) ?v1)) ?v1) ?v0) ))
(assert (forall ((?v0 Nat$) (?v1 Nat$) (?v2 Nat$)) (= (fun_app$ (minus$ (fun_app$ (fun_app$a plus$ ?v0) ?v1)) (fun_app$ (fun_app$a plus$ ?v0) ?v2)) (fun_app$ (minus$ ?v1) ?v2)) ))
(assert (forall ((?v0 Natural$) (?v1 Natural$) (?v2 Natural$)) (= (fun_app$b (minus$a (fun_app$b (fun_app$c plus$a ?v0) ?v1)) (fun_app$b (fun_app$c plus$a ?v0) ?v2)) (fun_app$b (minus$a ?v1) ?v2)) ))
(assert (forall ((?v0 Nat$) (?v1 Nat$) (?v2 Nat$)) (= (fun_app$ (minus$ (fun_app$ (fun_app$a plus$ ?v0) ?v1)) (fun_app$ (fun_app$a plus$ ?v2) ?v1)) (fun_app$ (minus$ ?v0) ?v2)) ))
(assert (forall ((?v0 Natural$) (?v1 Natural$) (?v2 Natural$)) (= (fun_app$b (minus$a (fun_app$b (fun_app$c plus$a ?v0) ?v1)) (fun_app$b (fun_app$c plus$a ?v2) ?v1)) (fun_app$b (minus$a ?v0) ?v2)) ))
(assert (forall ((?v0 Nat$)) (! (= (fun_app$ (minus$ ?v0) ?v0) zero$) :pattern ((minus$ ?v0)))))
(assert (forall ((?v0 Nat$)) (! (= (fun_app$ (minus$ zero$) ?v0) zero$) :pattern ((fun_app$ (minus$ zero$) ?v0)))))
(assert (forall ((?v0 Nat$) (?v1 Nat$) (?v2 Nat$)) (= (fun_app$ (minus$ (fun_app$ (minus$ (suc$ ?v0)) ?v1)) (suc$ ?v2)) (fun_app$ (minus$ (fun_app$ (minus$ ?v0) ?v1)) ?v2)) ))
(assert (forall ((?v0 Nat$) (?v1 Nat$)) (! (= (fun_app$ (minus$ (suc$ ?v0)) (suc$ ?v1)) (fun_app$ (minus$ ?v0) ?v1)) :pattern ((fun_app$ (minus$ (suc$ ?v0)) (suc$ ?v1))))))
(assert (forall ((?v0 Nat$) (?v1 Nat$) (?v2 Nat$)) (= (fun_app$ (minus$ (fun_app$ (minus$ ?v0) ?v1)) ?v2) (fun_app$ (minus$ ?v0) (fun_app$ (fun_app$a plus$ ?v1) ?v2))) ))
(assert (forall ((?v0 Nat$) (?v1 Nat$)) (= (fun_app$ (minus$ ?v0) (fun_app$ (fun_app$a plus$ ?v0) ?v1)) zero$) ))
(assert (forall ((?v0 Natural$) (?v1 Natural$)) (= (fun_app$b (minus$a ?v0) (fun_app$b (fun_app$c plus$a ?v0) ?v1)) zero$a) ))
(assert (forall ((?v0 Nat$)) (= (fun_app$ (minus$ (suc$ ?v0)) one$) ?v0) ))
(assert (forall ((?v0 A_list$)) (= (fun_app$d size$ (tl$ ?v0)) (fun_app$ (minus$ (fun_app$d size$ ?v0)) one$)) ))
(assert (forall ((?v0 Nat$) (?v1 A$)) (= (tl$ (replicate$ ?v0 ?v1)) (replicate$ (fun_app$ (minus$ ?v0) one$) ?v1)) ))
(assert (forall ((?v0 Nat$) (?v1 Nat$) (?v2 Nat$)) (= (fun_app$ (fun_app$a min$ (fun_app$ (minus$ ?v0) ?v1)) (fun_app$ (minus$ ?v2) ?v1)) (fun_app$ (minus$ (fun_app$ (fun_app$a min$ ?v0) ?v2)) ?v1)) ))
(assert (forall ((?v0 Nat$) (?v1 Nat$) (?v2 Nat$)) (=> (= (fun_app$ (fun_app$a plus$ ?v0) ?v1) ?v2) (= ?v0 (fun_app$ (minus$ ?v2) ?v1))) ))
(assert (forall ((?v0 Natural$) (?v1 Natural$) (?v2 Natural$)) (=> (= (fun_app$b (fun_app$c plus$a ?v0) ?v1) ?v2) (= ?v0 (fun_app$b (minus$a ?v2) ?v1))) ))
(assert (forall ((?v0 Nat$) (?v1 Nat$) (?v2 Nat$)) (= (fun_app$ (minus$ (fun_app$ (minus$ ?v0) ?v1)) ?v2) (fun_app$ (minus$ ?v0) (fun_app$ (fun_app$a plus$ ?v1) ?v2))) ))
(assert (forall ((?v0 Natural$) (?v1 Natural$) (?v2 Natural$)) (= (fun_app$b (minus$a (fun_app$b (minus$a ?v0) ?v1)) ?v2) (fun_app$b (minus$a ?v0) (fun_app$b (fun_app$c plus$a ?v1) ?v2))) ))
(assert (forall ((?v0 Nat_bool_fun$) (?v1 Nat$) (?v2 Nat$)) (=> (and (fun_app$e ?v0 ?v1) (forall ((?v3 Nat$)) (=> (fun_app$e ?v0 (suc$ ?v3)) (fun_app$e ?v0 ?v3)) )) (fun_app$e ?v0 (fun_app$ (minus$ ?v1) ?v2))) ))
(assert (forall ((?v0 Nat$) (?v1 Nat$) (?v2 Nat$)) (= (fun_app$ (minus$ (fun_app$ (fun_app$a plus$ ?v0) ?v1)) (fun_app$ (fun_app$a plus$ ?v2) ?v1)) (fun_app$ (minus$ ?v0) ?v2)) ))
(assert (forall ((?v0 Nat$) (?v1 Nat$) (?v2 Nat$)) (= (fun_app$ (minus$ (fun_app$ (fun_app$a plus$ ?v0) ?v1)) (fun_app$ (fun_app$a plus$ ?v0) ?v2)) (fun_app$ (minus$ ?v1) ?v2)) ))
(assert (forall ((?v0 Nat$) (?v1 Nat$)) (= (fun_app$ (minus$ (fun_app$ (fun_app$a plus$ ?v0) ?v1)) ?v1) ?v0) ))
(assert (forall ((?v0 Nat$) (?v1 Nat$)) (= (fun_app$ (minus$ (fun_app$ (fun_app$a plus$ ?v0) ?v1)) ?v0) ?v1) ))
(assert (forall ((?v0 Nat$) (?v1 Nat$) (?v2 Nat$)) (= (fun_app$ (minus$ (fun_app$ (minus$ ?v0) ?v1)) ?v2) (fun_app$ (minus$ (fun_app$ (minus$ ?v0) ?v2)) ?v1)) ))
(assert (forall ((?v0 Nat$) (?v1 Nat$) (?v2 Nat$)) (= (fun_app$ (minus$ (fun_app$ (minus$ ?v0) ?v1)) ?v2) (fun_app$ (minus$ (fun_app$ (minus$ ?v0) ?v2)) ?v1)) ))
(assert (forall ((?v0 Natural$) (?v1 Natural$) (?v2 Natural$)) (= (fun_app$b (minus$a (fun_app$b (minus$a ?v0) ?v1)) ?v2) (fun_app$b (minus$a (fun_app$b (minus$a ?v0) ?v2)) ?v1)) ))
(assert (forall ((?v0 Nat$) (?v1 Nat$)) (=> (and (= (fun_app$ (minus$ ?v0) ?v1) zero$) (= (fun_app$ (minus$ ?v1) ?v0) zero$)) (= ?v0 ?v1)) ))
(assert (forall ((?v0 Nat$)) (! (= (fun_app$ (minus$ ?v0) zero$) ?v0) :pattern ((minus$ ?v0)))))
(assert (forall ((?v0 Nat$) (?v1 Nat$)) (= (fun_app$ (minus$ ?v0) (fun_app$ (fun_app$a plus$ ?v0) ?v1)) zero$) ))
(assert (forall ((?v0 Nat$) (?v1 Nat$)) (! (= (fun_app$ (minus$ ?v0) (suc$ ?v1)) (fun_app$ (minus$ (fun_app$ (minus$ ?v0) one$)) ?v1)) :pattern ((fun_app$ (minus$ ?v0) (suc$ ?v1))))))
(assert (forall ((?v0 Nat$) (?v1 A_list$)) (= (tl$ (take$ ?v0 ?v1)) (take$ (fun_app$ (minus$ ?v0) one$) (tl$ ?v1))) ))
(assert (= (fun_app$b (minus$a zero$a) one$a) zero$a))
(assert (forall ((?v0 Natural$)) (= (fun_app$b (minus$a (suc$a ?v0)) one$a) ?v0) ))
(assert (forall ((?v0 A$) (?v1 A_list$) (?v2 Nat$) (?v3 A$)) (= (= (cons$ ?v0 ?v1) (replicate$ ?v2 ?v3)) (and (= ?v0 ?v3) (and (fun_app$e (less$ zero$) ?v2) (= ?v1 (replicate$ (fun_app$ (minus$ ?v2) one$) ?v0))))) ))
(assert (forall ((?v0 Nat$) (?v1 A$) (?v2 A_list$)) (! (= (take$ ?v0 (cons$ ?v1 ?v2)) (ite (= ?v0 zero$) nil$ (cons$ ?v1 (take$ (fun_app$ (minus$ ?v0) one$) ?v2)))) :pattern ((take$ ?v0 (cons$ ?v1 ?v2))))))
(assert (forall ((?v0 Natural$) (?v1 Natural$) (?v2 Natural$)) (= (less$a (fun_app$b (fun_app$c plus$a ?v0) ?v1) (fun_app$b (fun_app$c plus$a ?v2) ?v1)) (less$a ?v0 ?v2)) ))
(assert (forall ((?v0 Nat$) (?v1 Nat$) (?v2 Nat$)) (= (fun_app$e (less$ (fun_app$ (fun_app$a plus$ ?v0) ?v1)) (fun_app$ (fun_app$a plus$ ?v2) ?v1)) (fun_app$e (less$ ?v0) ?v2)) ))
(assert (forall ((?v0 Natural$) (?v1 Natural$) (?v2 Natural$)) (= (less$a (fun_app$b (fun_app$c plus$a ?v0) ?v1) (fun_app$b (fun_app$c plus$a ?v0) ?v2)) (less$a ?v1 ?v2)) ))
(assert (forall ((?v0 Nat$) (?v1 Nat$) (?v2 Nat$)) (= (fun_app$e (less$ (fun_app$ (fun_app$a plus$ ?v0) ?v1)) (fun_app$ (fun_app$a plus$ ?v0) ?v2)) (fun_app$e (less$ ?v1) ?v2)) ))
(assert (forall ((?v0 Nat$)) (! (= (fun_app$e (less$ ?v0) zero$) false) :pattern ((less$ ?v0)))))
(assert (forall ((?v0 Nat$)) (= (not (fun_app$e (less$ zero$) ?v0)) (= ?v0 zero$)) ))
(assert (forall ((?v0 Nat$)) (= (not (= ?v0 zero$)) (fun_app$e (less$ zero$) ?v0)) ))
(assert (forall ((?v0 Nat$)) (fun_app$e (less$ ?v0) (suc$ ?v0)) ))
(assert (forall ((?v0 Nat$) (?v1 Nat$)) (=> (fun_app$e (less$ ?v0) ?v1) (fun_app$e (less$ (suc$ ?v0)) (suc$ ?v1))) ))
(assert (forall ((?v0 Nat$) (?v1 Nat$)) (! (= (fun_app$e (less$ (suc$ ?v0)) (suc$ ?v1)) (fun_app$e (less$ ?v0) ?v1)) :pattern ((fun_app$e (less$ (suc$ ?v0)) (suc$ ?v1))))))
(assert (forall ((?v0 Nat$) (?v1 Nat$) (?v2 Nat$)) (= (fun_app$e (less$ (fun_app$ (fun_app$a plus$ ?v0) ?v1)) (fun_app$ (fun_app$a plus$ ?v0) ?v2)) (fun_app$e (less$ ?v1) ?v2)) ))
(assert (forall ((?v0 Natural$) (?v1 Natural$) (?v2 Natural$)) (= (less$a ?v0 (fun_app$b (fun_app$c min$a ?v1) ?v2)) (and (less$a ?v0 ?v1) (less$a ?v0 ?v2))) ))
(assert (forall ((?v0 Nat$) (?v1 Nat$) (?v2 Nat$)) (= (fun_app$e (less$ ?v0) (fun_app$ (fun_app$a min$ ?v1) ?v2)) (and (fun_app$e (less$ ?v0) ?v1) (fun_app$e (less$ ?v0) ?v2))) ))
(assert (forall ((?v0 A_list$)) (! (= (fun_app$g (splice$ ?v0) nil$) ?v0) :pattern ((splice$ ?v0)))))
(check-sat)
(exit)

